problems/csplib-prob001/CarSequencing-models/noch/O2/lingeling/model-random36-solution000001.eprime-solution
language ESSENCE' 1.0

letting car_Function1D be
        [20, 16, 20, 4, 3, 20, 7, 3, 20, 4, 3, 1, 3, 12, 13, 20, 3, 2, 19, 20, 13, 20, 19, 3, 12, 7, 3, 23, 7, 3, 20, 4,
         20, 25, 3, 4, 20, 4, 20, 13, 20, 4, 16, 6, 3, 9, 12, 7, 12, 3, 20, 21, 3, 2, 7, 9, 12, 3, 16, 26, 26, 20, 9,
         19, 3, 26, 22, 9, 12, 3, 7, 12, 3, 22, 3, 9, 6, 3, 1, 3, 19, 12, 9, 10, 20, 3, 3, 17, 21, 6, 19, 3, 3, 2, 7, 6,
         3, 2, 7, 4, 6, 7, 20, 4, 7, 3, 6, 7, 3, 19, 7, 19, 3, 6, 7, 19, 6, 19, 6, 7, 19, 14, 7, 19, 6, 10, 2, 3, 8, 9,
         26, 1, 4, 3, 18, 26, 1, 3, 3, 7, 6, 3, 11, 3, 3, 20, 10, 26, 20, 21, 3, 17, 10, 19, 6, 10, 20, 3, 16, 3, 3, 9,
         8, 26, 2, 3, 10, 17, 4, 2, 3, 6, 9, 19, 24, 19, 6, 13, 3, 2, 3, 8, 9, 26, 4, 1, 3, 3, 16, 6, 3, 7, 3, 5, 4, 3,
         1, 3, 19, 15; int(1..200)]
